NAME : in_house_9_23
TYPE : TSP
DIMENSION : 9
EDGE_WEIGHT_TYPE : EXPLICIT
EDGE_WEIGHT_FORMAT : UPPER_ROW
COMMENT : INVERSION_SHIFT=5
EDGE_WEIGHT_SECTION
19
50
63
18
37
21
14
8
43
28
9
74
37
20
36
60
23
80
59
27
10
57
17
60
77
41
78
80
3
24
6
65
6
32
81
31
